NAME: ch130
TYPE: TSP
COMMENT: 130 city problem (Churritz)
DIMENSION: 130
EDGE_WEIGHT_TYPE: EUC_2D
BEST_KNOWN : 6110
NODE_COORD_SECTION
1 22 22
2 36 26
3 21 45
4 45 35
5 55 20
6 33 34
7 50 50
8 55 45
9 26 59
10 40 66
11 11 73
12 76 76
EOF
